c User generated cnf file
p cnf 15 58
-1 14 12 0 
11 -4 2 0 
6 -6 14 0 
6 -11 10 0 
11 -15 3 0 
4 10 -4 0 
-10 3 7 0 
11 9 -1 0 
8 10 -12 0 
-11 9 10 0 
-8 12 12 0 
-13 13 9 0 
10 3 -1 0 
-11 3 15 0 
9 7 -7 0 
-3 8 4 0 
6 8 -14 0 
-11 10 8 0 
-14 3 10 0 
12 -1 10 0 
14 -3 12 0 
13 1 -2 0 
8 -2 10 0 
2 4 -1 0 
13 7 -3 0 
12 -15 10 0 
-8 11 12 0 
10 -11 2 0 
11 -14 3 0 
1 9 -3 0 
-13 13 5 0 
14 -3 2 0 
15 4 -9 0 
6 -7 2 0 
12 10 -3 0 
-2 13 15 0 
-14 7 9 0 
-13 8 10 0 
10 11 -11 0 
-14 3 5 0 
-14 6 6 0 
9 -15 5 0 
-6 14 13 0 
9 -2 8 0 
4 3 -6 0 
-14 15 2 0 
-7 4 7 0 
14 -15 13 0 
4 13 -7 0 
7 6 -6 0 
-4 12 11 0 
-11 4 1 0 
10 -2 2 0 
6 4 -8 0 
11 -3 5 0 
15 -15 15 0 
6 2 -2 0 
10 3 -13 0 
